15 4 
5559	5559	5559	5559	
283	264	275	
624	220	228	
768	548	563	
525	871	885	
523	413	439	
884	448	463	
942	357	366	
273	755	757	
53	308	317	
911	617	617	
606	951	1024	
177	409	419	
119	132	138	
269	244	250	
217	875	951	
